20	5
0	6	4	6	1	5	2	3
1	3	15	9	14
2	4	9	17	14	10
3	3	7	13	14
4	2	16	7
5	2	20	14
6	3	19	16	17
7	1	11
8	2	15	20
9	2	12	13
10	3	12	8	19
11	1	21
12	1	21
13	1	21
14	1	21
15	1	21
16	1	21
17	1	21
18	1	21
19	1	21
20	1	21
21	0
0	0	0	0	0	0	0
1	2	0	2	3	1	4
2	3	3	0	0	0	3
3	4	0	5	0	3	5
4	5	3	0	2	3	0
5	4	0	0	0	4	4
6	8	0	5	0	2	0
7	1	0	0	0	0	3
8	6	0	2	1	1	0
9	10	1	3	0	0	5
10	4	2	1	0	1	5
11	9	5	0	2	0	0
12	3	1	0	3	0	3
13	9	5	5	5	4	4
14	8	0	5	0	0	0
15	7	1	0	4	0	2
16	10	0	0	4	0	0
17	4	0	4	0	1	0
18	4	1	0	0	0	0
19	1	0	0	1	0	5
20	2	0	0	4	1	1
21	0	0	0	0	0	0
9	10	11	10	13
